\ENCODING=ISO-8859-1
\Problem name: IloCplex

Minimize
 obj1: x_a_0 + 2 x_a_1 + 2 x_a_2 + x_a_3 + 3 x_a_4 + 3 x_a_5 + 2 x_a_6
       + 2 x_a_7 + 3 x_a_8 + 2 x_a_9 + 2 x_a_10 + 2 x_a_11 + x_a_12 + 2 x_a_13
       + x_a_14 + x_a_15 + x_a_16 + 3 x_a_17 + 3 x_a_18 + 2 x_a_19 + x_a_20
       + x_a_21 + x_a_22 + x_a_23 + x_a_24 + 3 x_a_25 + 3 x_a_26 + 3 x_a_27
       + 3 x_a_28 + x_a_29 + x_a_30 + 2 x_a_31 + x_a_32 + 3 x_a_33 + 2 x_a_34
       + x_a_35 + 3 x_a_36 + 2 x_a_37 + 3 x_a_38 + x_a_39 + 2 x_a_40 + 3 x_a_41
       + 3 x_a_42 + 3 x_a_43 + 3 x_a_44 + x_a_45 + 2 x_a_46 + 2 x_a_47
       + 3 x_a_48 + 2 x_a_49 + x_a_50 + 3 x_a_51 + x_a_52 + 2 x_a_53 + 2 x_a_54
       + 3 x_a_55 + 2 x_a_56 + x_a_57 + 3 x_a_58 + 3 x_a_59 + x_a_60 + x_a_61
       + x_a_62 + 3 x_a_63 + 2 x_a_64 + x_a_65 + 3 x_a_66 + 2 x_a_67 + x_a_68
       + x_a_69 + x_a_70 + 3 x_a_71 + 2 x_a_72 + x_a_73 + x_a_74 + 3 x_a_75
       + x_a_76 + 3 x_a_77 + x_a_78 + x_a_79 + 3 x_a_80 + x_a_81 + 3 x_a_82
       + 2 x_a_83 + 2 x_a_84 + x_a_85 + 3 x_a_86 + 2 x_a_87 + 3 x_a_88
       + 3 x_a_89 + 2 x_a_90 + 2 x_a_91 + 2 x_a_92 + x_a_93 + x_a_94 + 2 x_a_95
       + 1000000000 x_a_96 + 1000000000 x_a_97 + 1000000000 x_a_98
       + 1000000000 x_a_99 + 1000000000 x_a_100 + 1000000000 x_a_101
       + 1000000000 x_a_102 + 1000000000 x_a_103 + 10000 x_a_104
Subject To
 c1:   y_a_96 + y_a_97 + y_a_98 + y_a_99 <= 257.4
 c2:   y_a_0 + y_a_1 + y_a_2 + y_a_3 + y_a_4 + y_a_5 + y_a_6 + y_a_7 + y_a_100
        = 0
 c3:   - y_a_0 + y_a_8 + y_a_9 + y_a_10 + y_a_11 + y_a_12 + y_a_13 + y_a_14
       + y_a_15 + y_a_16 + y_a_17 + y_a_18  = 0
 c4:   - y_a_1 - y_a_8 + y_a_19 + y_a_20 + y_a_21 + y_a_22 + y_a_23 + y_a_24
       + y_a_25  = 0
 c5:   - y_a_2 - y_a_9 - y_a_19 + y_a_26 + y_a_27 + y_a_28 + y_a_29 + y_a_30
       + y_a_31 + y_a_32 + y_a_33 + y_a_34  = 0
 c6:   - y_a_98 - y_a_10 + y_a_35 + y_a_36 + y_a_37 + y_a_38 + y_a_39 + y_a_40
       + y_a_41 + y_a_42  = 0
 c7:   - y_a_99 - y_a_3 - y_a_11 + y_a_43 + y_a_44 + y_a_45 + y_a_46 + y_a_47
       + y_a_48 + y_a_49 + y_a_50  = 0
 c8:   - y_a_20 - y_a_26 - y_a_35 + y_a_51 + y_a_52 + y_a_53 + y_a_54 + y_a_55
       + y_a_56 + y_a_57  = 0
 c9:   - y_a_12 - y_a_21 - y_a_36 - y_a_51 + y_a_58 + y_a_59 + y_a_60 + y_a_61
       + y_a_62 + y_a_63 + y_a_64 + y_a_65  = 0
 c10:  - y_a_13 - y_a_37 - y_a_43 - y_a_52 - y_a_58 + y_a_66 + y_a_67 + y_a_68
       + y_a_69 + y_a_70 + y_a_71  = 0
 c11:  - y_a_38 - y_a_44 - y_a_59 - y_a_66 + y_a_72 + y_a_73 + y_a_74 + y_a_75
       + y_a_76 + y_a_77 + y_a_78 + y_a_102  = 0
 c12:  - y_a_96 - y_a_27 - y_a_39 - y_a_45 - y_a_53 - y_a_60 - y_a_67 - y_a_72
       + y_a_79 + y_a_80 + y_a_81  = 0
 c13:  - y_a_4 - y_a_14 - y_a_22 - y_a_28 - y_a_54 - y_a_68 - y_a_73 - y_a_79
       + y_a_82 + y_a_83 + y_a_84 + y_a_85  = 0
 c14:  - y_a_15 - y_a_23 - y_a_29 - y_a_40 - y_a_46 - y_a_61 - y_a_69 - y_a_74
       - y_a_82 + y_a_86 + y_a_87 + y_a_88 + y_a_89  = 0
 c15:  - y_a_97 - y_a_16 - y_a_24 - y_a_30 - y_a_55 - y_a_70 - y_a_80 - y_a_83
       - y_a_86 + y_a_90 + y_a_91  = 0
 c16:  - y_a_5 - y_a_31 - y_a_41 - y_a_47 - y_a_56 - y_a_62 - y_a_75 - y_a_81
       - y_a_84 - y_a_87 - y_a_90 + y_a_92 + y_a_93  = 0
 c17:  - y_a_6 - y_a_32 - y_a_48 - y_a_63 - y_a_76 - y_a_88 - y_a_92 + y_a_94
        = 0
 c18:  - y_a_7 - y_a_17 - y_a_25 - y_a_33 - y_a_42 - y_a_49 - y_a_64 - y_a_77
       - y_a_85 - y_a_91 - y_a_93 - y_a_94 + y_a_95 + y_a_101  = 0
 c19:  - y_a_18 - y_a_34 - y_a_50 - y_a_57 - y_a_65 - y_a_71 - y_a_78 - y_a_89
       - y_a_95 + y_a_103  = 0
 c20:  y_a_96 + y_a_97 + y_a_98 + y_a_99 - y_a_104  = 0
 c21:  - y_a_100 - y_a_102 - y_a_101 - y_a_103 + y_a_104  = 0
 c22:  y_a_0 + 28 x_a_0 <= 28
 c23:  y_a_1 + 9 x_a_1 <= 9
 c24:  y_a_2 + 17 x_a_2 <= 17
 c25:  y_a_3 + 10 x_a_3 <= 10
 c26:  y_a_4 + 2 x_a_4 <= 2
 c27:  y_a_5 + 11 x_a_5 <= 11
 c28:  y_a_6 + 46 x_a_6 <= 46
 c29:  y_a_7 + 45 x_a_7 <= 45
 c30:  y_a_8 + 13 x_a_8 <= 13
 c31:  y_a_9 + 40 x_a_9 <= 40
 c32:  y_a_10 + 42 x_a_10 <= 42
 c33:  y_a_11 + 7 x_a_11 <= 7
 c34:  y_a_12 + 48 x_a_12 <= 48
 c35:  y_a_13 + 46 x_a_13 <= 46
 c36:  y_a_14 + 3 x_a_14 <= 3
 c37:  y_a_15 + 17 x_a_15 <= 17
 c38:  y_a_16 + 37 x_a_16 <= 37
 c39:  y_a_17 + 29 x_a_17 <= 29
 c40:  y_a_18 + 35 x_a_18 <= 35
 c41:  y_a_19 + 16 x_a_19 <= 16
 c42:  y_a_20 + 32 x_a_20 <= 32
 c43:  y_a_21 + 22 x_a_21 <= 22
 c44:  y_a_22 + 15 x_a_22 <= 15
 c45:  y_a_23 + 40 x_a_23 <= 40
 c46:  y_a_24 + 5 x_a_24 <= 5
 c47:  y_a_25 + 23 x_a_25 <= 23
 c48:  y_a_26 + 18 x_a_26 <= 18
 c49:  y_a_27 + 3 x_a_27 <= 3
 c50:  y_a_28 + 20 x_a_28 <= 20
 c51:  y_a_29 + 24 x_a_29 <= 24
 c52:  y_a_30 + 2 x_a_30 <= 2
 c53:  y_a_31 + 43 x_a_31 <= 43
 c54:  y_a_32 + 20 x_a_32 <= 20
 c55:  y_a_33 + 12 x_a_33 <= 12
 c56:  y_a_34 + 7 x_a_34 <= 7
 c57:  y_a_35 + 42 x_a_35 <= 42
 c58:  y_a_36 + 45 x_a_36 <= 45
 c59:  y_a_37 + 21 x_a_37 <= 21
 c60:  y_a_38 + 30 x_a_38 <= 30
 c61:  y_a_39 + 12 x_a_39 <= 12
 c62:  y_a_40 + 41 x_a_40 <= 41
 c63:  y_a_41 + 14 x_a_41 <= 14
 c64:  y_a_42 + 12 x_a_42 <= 12
 c65:  y_a_43 + 40 x_a_43 <= 40
 c66:  y_a_44 + 8 x_a_44 <= 8
 c67:  y_a_45 + 29 x_a_45 <= 29
 c68:  y_a_46 + 39 x_a_46 <= 39
 c69:  y_a_47 + 17 x_a_47 <= 17
 c70:  y_a_48 + 39 x_a_48 <= 39
 c71:  y_a_49 + 15 x_a_49 <= 15
 c72:  y_a_50 + 17 x_a_50 <= 17
 c73:  y_a_51 + 45 x_a_51 <= 45
 c74:  y_a_52 + 42 x_a_52 <= 42
 c75:  y_a_53 + 32 x_a_53 <= 32
 c76:  y_a_54 + 48 x_a_54 <= 48
 c77:  y_a_55 + 6 x_a_55 <= 6
 c78:  y_a_56 + 6 x_a_56 <= 6
 c79:  y_a_57 + 31 x_a_57 <= 31
 c80:  y_a_58 + 19 x_a_58 <= 19
 c81:  y_a_59 + 24 x_a_59 <= 24
 c82:  y_a_60 + 37 x_a_60 <= 37
 c83:  y_a_61 + 45 x_a_61 <= 45
 c84:  y_a_62 + 33 x_a_62 <= 33
 c85:  y_a_63 + 10 x_a_63 <= 10
 c86:  y_a_64 + 49 x_a_64 <= 49
 c87:  y_a_65 + 2 x_a_65 <= 2
 c88:  y_a_66 + 33 x_a_66 <= 33
 c89:  y_a_67 + 10 x_a_67 <= 10
 c90:  y_a_68 + 13 x_a_68 <= 13
 c91:  y_a_69 + 3 x_a_69 <= 3
 c92:  y_a_70 + 16 x_a_70 <= 16
 c93:  y_a_71 + 8 x_a_71 <= 8
 c94:  y_a_72 + 30 x_a_72 <= 30
 c95:  y_a_73 + 44 x_a_73 <= 44
 c96:  y_a_74 + 20 x_a_74 <= 20
 c97:  y_a_75 + 15 x_a_75 <= 15
 c98:  y_a_76 + 26 x_a_76 <= 26
 c99:  y_a_77 + 43 x_a_77 <= 43
 c100: y_a_78 + 38 x_a_78 <= 38
 c101: y_a_79 + 4 x_a_79 <= 4
 c102: y_a_80 + 32 x_a_80 <= 32
 c103: y_a_81 + 42 x_a_81 <= 42
 c104: y_a_82 + 34 x_a_82 <= 34
 c105: y_a_83 + 4 x_a_83 <= 4
 c106: y_a_84 + 43 x_a_84 <= 43
 c107: y_a_85 + 2 x_a_85 <= 2
 c108: y_a_86 + 27 x_a_86 <= 27
 c109: y_a_87 + 48 x_a_87 <= 48
 c110: y_a_88 + 38 x_a_88 <= 38
 c111: y_a_89 + 18 x_a_89 <= 18
 c112: y_a_90 + 40 x_a_90 <= 40
 c113: y_a_91 + 4 x_a_91 <= 4
 c114: y_a_92 + 3 x_a_92 <= 3
 c115: y_a_93 + 6 x_a_93 <= 6
 c116: y_a_94 + 46 x_a_94 <= 46
 c117: y_a_95 + 35 x_a_95 <= 35
 c118: y_a_96 + 50000000 x_a_96 <= 50000000
 c119: y_a_97 + 50000000 x_a_97 <= 50000000
 c120: y_a_98 + 50000000 x_a_98 <= 50000000
 c121: y_a_99 + 50000000 x_a_99 <= 50000000
 c122: y_a_100 + 50000000 x_a_100 <= 50000000
 c123: y_a_101 + 50000000 x_a_101 <= 50000000
 c124: y_a_102 + 50000000 x_a_102 <= 50000000
 c125: y_a_103 + 50000000 x_a_103 <= 50000000
 c126: y_a_104 + 10000 x_a_104 <= 10000
Bounds
 0 <= y_a_96 <= 50000000
 0 <= y_a_97 <= 50000000
 0 <= y_a_98 <= 50000000
 0 <= y_a_99 <= 50000000
 0 <= y_a_0 <= 28
 0 <= y_a_1 <= 9
 0 <= y_a_2 <= 17
 0 <= y_a_3 <= 10
 0 <= y_a_4 <= 2
 0 <= y_a_5 <= 11
 0 <= y_a_6 <= 46
 0 <= y_a_7 <= 45
 0 <= y_a_100 <= 50000000
 0 <= y_a_8 <= 13
 0 <= y_a_9 <= 40
 0 <= y_a_10 <= 42
 0 <= y_a_11 <= 7
 0 <= y_a_12 <= 48
 0 <= y_a_13 <= 46
 0 <= y_a_14 <= 3
 0 <= y_a_15 <= 17
 0 <= y_a_16 <= 37
 0 <= y_a_17 <= 29
 0 <= y_a_18 <= 35
 0 <= y_a_19 <= 16
 0 <= y_a_20 <= 32
 0 <= y_a_21 <= 22
 0 <= y_a_22 <= 15
 0 <= y_a_23 <= 40
 0 <= y_a_24 <= 5
 0 <= y_a_25 <= 23
 0 <= y_a_26 <= 18
 0 <= y_a_27 <= 3
 0 <= y_a_28 <= 20
 0 <= y_a_29 <= 24
 0 <= y_a_30 <= 2
 0 <= y_a_31 <= 43
 0 <= y_a_32 <= 20
 0 <= y_a_33 <= 12
 0 <= y_a_34 <= 7
 0 <= y_a_35 <= 42
 0 <= y_a_36 <= 45
 0 <= y_a_37 <= 21
 0 <= y_a_38 <= 30
 0 <= y_a_39 <= 12
 0 <= y_a_40 <= 41
 0 <= y_a_41 <= 14
 0 <= y_a_42 <= 12
 0 <= y_a_43 <= 40
 0 <= y_a_44 <= 8
 0 <= y_a_45 <= 29
 0 <= y_a_46 <= 39
 0 <= y_a_47 <= 17
 0 <= y_a_48 <= 39
 0 <= y_a_49 <= 15
 0 <= y_a_50 <= 17
 0 <= y_a_51 <= 45
 0 <= y_a_52 <= 42
 0 <= y_a_53 <= 32
 0 <= y_a_54 <= 48
 0 <= y_a_55 <= 6
 0 <= y_a_56 <= 6
 0 <= y_a_57 <= 31
 0 <= y_a_58 <= 19
 0 <= y_a_59 <= 24
 0 <= y_a_60 <= 37
 0 <= y_a_61 <= 45
 0 <= y_a_62 <= 33
 0 <= y_a_63 <= 10
 0 <= y_a_64 <= 49
 0 <= y_a_65 <= 2
 0 <= y_a_66 <= 33
 0 <= y_a_67 <= 10
 0 <= y_a_68 <= 13
 0 <= y_a_69 <= 3
 0 <= y_a_70 <= 16
 0 <= y_a_71 <= 8
 0 <= y_a_72 <= 30
 0 <= y_a_73 <= 44
 0 <= y_a_74 <= 20
 0 <= y_a_75 <= 15
 0 <= y_a_76 <= 26
 0 <= y_a_77 <= 43
 0 <= y_a_78 <= 38
 0 <= y_a_102 <= 50000000
 0 <= y_a_79 <= 4
 0 <= y_a_80 <= 32
 0 <= y_a_81 <= 42
 0 <= y_a_82 <= 34
 0 <= y_a_83 <= 4
 0 <= y_a_84 <= 43
 0 <= y_a_85 <= 2
 0 <= y_a_86 <= 27
 0 <= y_a_87 <= 48
 0 <= y_a_88 <= 38
 0 <= y_a_89 <= 18
 0 <= y_a_90 <= 40
 0 <= y_a_91 <= 4
 0 <= y_a_92 <= 3
 0 <= y_a_93 <= 6
 0 <= y_a_94 <= 46
 0 <= y_a_95 <= 35
 0 <= y_a_101 <= 50000000
 0 <= y_a_103 <= 50000000
 0 <= y_a_104 <= 10000
 0 <= x_a_0 <= 1
 0 <= x_a_1 <= 1
 0 <= x_a_2 <= 1
 0 <= x_a_3 <= 1
 0 <= x_a_4 <= 1
 0 <= x_a_5 <= 1
 0 <= x_a_6 <= 1
 0 <= x_a_7 <= 1
 0 <= x_a_8 <= 1
 0 <= x_a_9 <= 1
 0 <= x_a_10 <= 1
 0 <= x_a_11 <= 1
 0 <= x_a_12 <= 1
 0 <= x_a_13 <= 1
 0 <= x_a_14 <= 1
 0 <= x_a_15 <= 1
 0 <= x_a_16 <= 1
 0 <= x_a_17 <= 1
 0 <= x_a_18 <= 1
 0 <= x_a_19 <= 1
 0 <= x_a_20 <= 1
 0 <= x_a_21 <= 1
 0 <= x_a_22 <= 1
 0 <= x_a_23 <= 1
 0 <= x_a_24 <= 1
 0 <= x_a_25 <= 1
 0 <= x_a_26 <= 1
 0 <= x_a_27 <= 1
 0 <= x_a_28 <= 1
 0 <= x_a_29 <= 1
 0 <= x_a_30 <= 1
 0 <= x_a_31 <= 1
 0 <= x_a_32 <= 1
 0 <= x_a_33 <= 1
 0 <= x_a_34 <= 1
 0 <= x_a_35 <= 1
 0 <= x_a_36 <= 1
 0 <= x_a_37 <= 1
 0 <= x_a_38 <= 1
 0 <= x_a_39 <= 1
 0 <= x_a_40 <= 1
 0 <= x_a_41 <= 1
 0 <= x_a_42 <= 1
 0 <= x_a_43 <= 1
 0 <= x_a_44 <= 1
 0 <= x_a_45 <= 1
 0 <= x_a_46 <= 1
 0 <= x_a_47 <= 1
 0 <= x_a_48 <= 1
 0 <= x_a_49 <= 1
 0 <= x_a_50 <= 1
 0 <= x_a_51 <= 1
 0 <= x_a_52 <= 1
 0 <= x_a_53 <= 1
 0 <= x_a_54 <= 1
 0 <= x_a_55 <= 1
 0 <= x_a_56 <= 1
 0 <= x_a_57 <= 1
 0 <= x_a_58 <= 1
 0 <= x_a_59 <= 1
 0 <= x_a_60 <= 1
 0 <= x_a_61 <= 1
 0 <= x_a_62 <= 1
 0 <= x_a_63 <= 1
 0 <= x_a_64 <= 1
 0 <= x_a_65 <= 1
 0 <= x_a_66 <= 1
 0 <= x_a_67 <= 1
 0 <= x_a_68 <= 1
 0 <= x_a_69 <= 1
 0 <= x_a_70 <= 1
 0 <= x_a_71 <= 1
 0 <= x_a_72 <= 1
 0 <= x_a_73 <= 1
 0 <= x_a_74 <= 1
 0 <= x_a_75 <= 1
 0 <= x_a_76 <= 1
 0 <= x_a_77 <= 1
 0 <= x_a_78 <= 1
 0 <= x_a_79 <= 1
 0 <= x_a_80 <= 1
 0 <= x_a_81 <= 1
 0 <= x_a_82 <= 1
 0 <= x_a_83 <= 1
 0 <= x_a_84 <= 1
 0 <= x_a_85 <= 1
 0 <= x_a_86 <= 1
 0 <= x_a_87 <= 1
 0 <= x_a_88 <= 1
 0 <= x_a_89 <= 1
 0 <= x_a_90 <= 1
 0 <= x_a_91 <= 1
 0 <= x_a_92 <= 1
 0 <= x_a_93 <= 1
 0 <= x_a_94 <= 1
 0 <= x_a_95 <= 1
 0 <= x_a_96 <= 1
 0 <= x_a_97 <= 1
 0 <= x_a_98 <= 1
 0 <= x_a_99 <= 1
 0 <= x_a_100 <= 1
 0 <= x_a_101 <= 1
 0 <= x_a_102 <= 1
 0 <= x_a_103 <= 1
 0 <= x_a_104 <= 1
Binaries
 x_a_0  x_a_1  x_a_2  x_a_3  x_a_4  x_a_5  x_a_6  x_a_7  x_a_8  x_a_9  x_a_10 
 x_a_11  x_a_12  x_a_13  x_a_14  x_a_15  x_a_16  x_a_17  x_a_18  x_a_19 
 x_a_20  x_a_21  x_a_22  x_a_23  x_a_24  x_a_25  x_a_26  x_a_27  x_a_28 
 x_a_29  x_a_30  x_a_31  x_a_32  x_a_33  x_a_34  x_a_35  x_a_36  x_a_37 
 x_a_38  x_a_39  x_a_40  x_a_41  x_a_42  x_a_43  x_a_44  x_a_45  x_a_46 
 x_a_47  x_a_48  x_a_49  x_a_50  x_a_51  x_a_52  x_a_53  x_a_54  x_a_55 
 x_a_56  x_a_57  x_a_58  x_a_59  x_a_60  x_a_61  x_a_62  x_a_63  x_a_64 
 x_a_65  x_a_66  x_a_67  x_a_68  x_a_69  x_a_70  x_a_71  x_a_72  x_a_73 
 x_a_74  x_a_75  x_a_76  x_a_77  x_a_78  x_a_79  x_a_80  x_a_81  x_a_82 
 x_a_83  x_a_84  x_a_85  x_a_86  x_a_87  x_a_88  x_a_89  x_a_90  x_a_91 
 x_a_92  x_a_93  x_a_94  x_a_95  x_a_96  x_a_97  x_a_98  x_a_99  x_a_100 
 x_a_101  x_a_102  x_a_103  x_a_104 
Generals
 y_a_96  y_a_97  y_a_98  y_a_99  y_a_0  y_a_1  y_a_2  y_a_3  y_a_4  y_a_5 
 y_a_6  y_a_7  y_a_100  y_a_8  y_a_9  y_a_10  y_a_11  y_a_12  y_a_13  y_a_14 
 y_a_15  y_a_16  y_a_17  y_a_18  y_a_19  y_a_20  y_a_21  y_a_22  y_a_23 
 y_a_24  y_a_25  y_a_26  y_a_27  y_a_28  y_a_29  y_a_30  y_a_31  y_a_32 
 y_a_33  y_a_34  y_a_35  y_a_36  y_a_37  y_a_38  y_a_39  y_a_40  y_a_41 
 y_a_42  y_a_43  y_a_44  y_a_45  y_a_46  y_a_47  y_a_48  y_a_49  y_a_50 
 y_a_51  y_a_52  y_a_53  y_a_54  y_a_55  y_a_56  y_a_57  y_a_58  y_a_59 
 y_a_60  y_a_61  y_a_62  y_a_63  y_a_64  y_a_65  y_a_66  y_a_67  y_a_68 
 y_a_69  y_a_70  y_a_71  y_a_72  y_a_73  y_a_74  y_a_75  y_a_76  y_a_77 
 y_a_78  y_a_102  y_a_79  y_a_80  y_a_81  y_a_82  y_a_83  y_a_84  y_a_85 
 y_a_86  y_a_87  y_a_88  y_a_89  y_a_90  y_a_91  y_a_92  y_a_93  y_a_94 
 y_a_95  y_a_101  y_a_103  y_a_104 
End
